GPU_version/outputs/rc201.out
Total number of lines in the file: 110
Total number of nodes including depot: 101
Customer 1: (40, 50), Demand: 0, Time Window: [0, 960], Service Time: 0
Customer 2: (25, 85), Demand: 20, Time Window: [673, 793], Service Time: 10
Customer 3: (22, 75), Demand: 30, Time Window: [152, 272], Service Time: 10
Customer 4: (22, 85), Demand: 10, Time Window: [471, 591], Service Time: 10
Customer 5: (20, 80), Demand: 40, Time Window: [644, 764], Service Time: 10
calling MST kernel
Post Processing Route
Post 2 opt Processing Route
2-opt between 117 and 118 improved cost from 2516.31 to 2515.53
Elapsed time: 0.662601 seconds
Final Route: 
Route #1: 90 
Route #2: 65 82 99 
Route #3: 52 57 86 74 58 77 25 
Route #4: 23 21 48 
Route #5: 18 19 49 20 
Route #6: 22 24 
Route #7: 75 87 
Route #8: 59 97 66 
Route #9: 83 69 98 88 60 
Route #10: 78 
Route #11: 12 11 10 
Route #12: 9 13 
Route #13: 14 47 15 16 17 
Route #14: 73 79 7 6 
Route #15: 2 8 46 4 
Route #16: 45 5 3 1 55 100 70 
Route #17: 53 80 91 
Route #18: 92 95 84 85 51 
Route #19: 63 76 89 
Route #20: 62 50 34 
Route #21: 31 29 27 26 
Route #22: 28 30 32 
Route #23: 33 67 56 
Route #24: 64 94 93 
Route #25: 71 96 54 
Route #26: 72 41 
Route #27: 39 40 38 37 
Route #28: 36 35 
Route #29: 42 44 43 
Route #30: 81 61 68 
Route #31: Total Distance: 2516.31
Final route is valid
