outputs/rc201.txt.out
filename: RC201
Vehicles: 25, Capacity: 1000
Total customers : 101
No of routes: 31
Route #1: 90
Route #2: 69 98 53
Route #3: 88 60
Route #4: 78
Route #5: 12 11 10
Route #6: 9 13
Route #7: 14 47 15 16 17
Route #8: 73 79 7 6
Route #9: 2 8 46 4
Route #10: 45 5 3 1 55 100 70
Route #11: 65 82 99
Route #12: 52 57 86 74 58 77 25
Route #13: 23 21 48
Route #14: 18 19 49 20
Route #15: 22 24
Route #16: 75 87
Route #17: 97 59 66
Route #18: 83 91 80
Route #19: 92 95 67 62 50 34
Route #20: 31 29 27 26
Route #21: 28 30 32
Route #22: 33 56
Route #23: 64 51 85 84
Route #24: 63 76 89
Route #25: 94 93
Route #26: 96 71 54
Route #27: 81 61 68
Route #28: 72 41
Route #29: 39 38 40 37
Route #30: 36 35
Route #31: 42 44 43
Cost 2471
